c b=3,c=259
p cnf 14 30
2 3 -6 0
1 3 -7 0
3 -14 0
2 -3 6 0
2 -3 7 0
-3 14 0
1 2 -5 0
2 -8 0
2 -13 0
1 -2 3 6 0
3 -8 0
1 -2 -3 -6 0
-2 -3 8 0
1 -2 5 0
1 -2 -7 0
-2 13 0
1 -4 0
1 -12 0
-1 3 -6 0
2 3 -7 0
-1 -3 6 0
-1 2 5 0
-1 -2 3 7 0
-2 -3 -7 0
-1 -2 -5 0
-1 4 0
-1 12 0
-9 0
-10 0
-11 0
